100
1000
265
262
262
262
260
255
253
252
248
245
242
239
237
236
225
225
222
221
219
218
216
214
213
211
211
209
203
201
201
199
198
197
191
187
187
187
182
181
174
173
172
172
170
157
152
150
150
149
147
147
145
145
144
143
143
136
135
134
130
129
128
125
115
108
107
104
100
98
96
84
82
82
77
75
74
73
73
64
63
61
60
55
51
51
46
46
45
37
36
35
33
32
32
27
24
23
22
22
21
16
